param set_len = 50;
param target_sum = 11680720276;
param values := [1] 541124659 [2] 111108683 [3] 871509339 [4] 1032804329 [5] 550880386 [6] 11159099 [7] 3681689 [8] 430909114 [9] 918339828 [10] 106798067 [11] 862328633 [12] 686384069 [13] 795187622 [14] 691801837 [15] 437676595 [16] 213330577 [17] 658180528 [18] 1000494861 [19] 595195988 [20] 447762349 [21] 577496885 [22] 346752562 [23] 258125877 [24] 849041445 [25] 1018323621 [26] 572487044 [27] 975316953 [28] 275277642 [29] 496460720 [30] 517109169 [31] 741567716 [32] 963599267 [33] 846468442 [34] 330362656 [35] 572462875 [36] 40004050 [37] 494067457 [38] 232480074 [39] 304181652 [40] 437166162 [41] 352270069 [42] 498251097 [43] 682274386 [44] 989899443 [45] 317365129 [46] 947281736 [47] 903581670 [48] 216417380 [49] 179005714 [50] 881246149 ;
